(set-logic BV) (define-fun origCir ((n267 Bool) (n270 Bool) (n275 Bool) (n250 Bool)) Bool (xor (xor (and n275 (xor (and n270 n267) n267)) (xor (and n270 n267) n267)) n250)) (synth-fun skel ((n267 Bool) (n270 Bool) (n275 Bool) (n250 Bool)) Bool) (declare-var n267 Bool) (declare-var n270 Bool) (declare-var n275 Bool) (declare-var n250 Bool) (constraint (= (origCir n267 n270 n275 n250) (skel n267 n270 n275 n250))) (check-synth)
